instances/drugnet.gr
c Largest connected component from Drugnet.paj (193/293 vertices)
p tw 193 273
2 1
3 1
3 2
5 4
6 5
7 6
9 8
11 10
12 1
12 2
12 5
14 13
15 13
17 16
18 16
20 19
21 20
22 21
23 18
23 21
24 3
25 24
27 13
27 26
28 26
28 27
29 25
30 29
31 29
32 29
33 27
34 33
35 24
36 14
36 27
36 35
37 27
37 33
37 36
38 22
39 22
39 38
40 15
42 9
42 41
43 9
43 17
43 25
44 38
45 38
46 38
47 11
47 44
49 48
50 48
51 48
51 49
52 9
53 52
54 50
54 51
55 50
56 50
57 54
58 54
59 33
60 57
62 39
62 54
62 61
64 63
65 63
66 37
67 15
67 27
67 43
68 30
68 67
69 67
70 27
70 30
70 32
70 43
70 53
71 70
72 9
72 70
73 23
74 58
75 58
75 74
76 30
76 53
77 30
77 36
77 70
78 30
79 18
79 30
80 27
80 29
81 72
81 76
82 31
82 33
82 34
82 43
82 70
83 72
84 27
84 70
85 27
86 14
86 33
86 72
87 42
87 86
88 77
89 18
89 28
89 70
90 65
91 42
92 91
93 91
93 92
94 82
95 31
95 82
95 94
96 31
96 95
97 58
98 39
98 54
98 58
98 97
99 13
99 32
99 96
100 69
100 99
101 97
101 99
102 36
102 100
103 87
105 104
106 104
107 55
107 106
108 55
108 65
108 107
109 47
110 14
110 25
110 43
111 43
112 85
112 92
113 45
113 54
113 75
113 101
114 47
115 47
116 62
117 75
117 113
118 88
119 43
120 119
122 121
123 121
123 122
124 44
125 98
126 125
127 32
127 34
128 11
129 128
131 130
132 32
133 132
134 2
135 130
136 131
136 135
137 60
137 135
138 20
138 65
138 135
138 137
139 56
139 135
139 136
139 137
139 138
140 113
140 139
141 140
142 6
143 128
144 103
146 145
147 140
148 15
149 148
150 112
150 148
151 145
151 148
152 115
153 3
154 54
154 138
155 70
156 43
156 70
157 39
157 49
157 54
157 154
158 74
158 121
158 122
158 141
159 140
159 147
160 92
161 70
161 156
162 18
162 79
163 162
164 76
165 164
166 88
168 111
168 167
169 43
169 70
170 50
171 20
171 49
171 54
172 4
173 76
174 89
175 51
176 46
177 89
177 174
178 126
179 4
179 88
180 112
181 145
182 76
183 76
184 88
185 6
186 150
187 10
188 112
189 150
190 189
191 92
192 191
193 192